NAME: tsp40_3
COMMENT: 40-tsp problem (Padberg/Rinaldi)
TYPE: TSP
DIMENSION: 40
EDGE_WEIGHT_TYPE : EUC_2D
NODE_COORD_SECTION
1 17 1
2 39 18
3 5 4
4 7 24
5 24 7
6 20 26
7 25 8
8 27 37
9 27 29
10 8 7
11 33 21
12 29 2
13 39 15
14 15 35
15 7 39
16 28 7
17 6 36
18 38 0
19 36 18
20 24 35
21 33 16
22 16 20
23 32 15
24 6 37
25 14 17
26 28 30
27 22 12
28 13 6
29 12 8
30 29 40
31 33 40
32 29 25
33 22 27
34 29 9
35 25 30
36 18 2
37 5 10
38 32 3
39 38 19
40 11 23
